WARNING: for repeatability, setting FPU to use double precision
============================[ Problem Statistics ]=============================
|                                                                             |
|  Number of variables:           100                                         |
|  Number of clauses:             449                                         |
|  Parse time:                   0.00 s                                       |
|  Eliminated clauses:           0.00 Mb                                      |
|  Simplification time:          0.00 s                                       |
|                                                                             |
============================[ Search Statistics ]==============================
| Conflicts |          ORIGINAL         |          LEARNT          | Progress |
|           |    Vars  Clauses Literals |    Limit  Clauses Lit/Cl |          |
===============================================================================
|       100 |      99      449     1351 |      164      100      7 |  0.010 % |
===============================================================================
restarts              : 2
conflicts             : 178            (56670 /sec)
decisions             : 233            (0.00 % random) (74180 /sec)
propagations          : 4001           (1273798 /sec)
conflict literals     : 1247           (15.57 % deleted)
Memory used           : 13.00 MB
CPU time              : 0.003141 s

SATISFIABLE
